(set-logic ALL)
(set-option :produce-models true)
(declare-sort BoundSet 0)
(declare-sort UnboundSet 0)
(set-option :finite-model-find true)
(declare-fun IsInBlack (BoundSet) Bool)
(declare-fun IsWalking (BoundSet) Bool)
(declare-fun IsOnHill (BoundSet BoundSet) Bool)
(declare-fun IsCoveredInSnow (BoundSet BoundSet) Bool)
(declare-fun IsOnKnees (BoundSet BoundSet) Bool)
(declare-fun IsOutside (BoundSet) Bool)
(assert (not (=> (exists ((a BoundSet)) (exists ((f BoundSet)) (exists ((e BoundSet)) (exists ((c BoundSet)) (exists ((d BoundSet)) (and (IsInBlack a) (and (IsWalking a) (and (IsOnHill a c) (and (IsCoveredInSnow c d) (IsOnKnees e f)))))))))) (exists ((g BoundSet)) (IsOutside g)))))
(check-sat)
(get-model)